set VV := 0 1 2 3 4 5 6 7 8 9 10 11 12 13 14 15 16 17 18 19 20 21 22 23 24 25 26 27 28 29 30 31 32 33 34 35 36 37 ;
set VS := 0 1 2 3 4 5 6 7 8 9 10 11 12 13 14 15 16 17 18 19 20 21 22 23 24 25 26 27 28 29 30 31 32 33 34 35 36 37 38 39 40 41 42 43 44 45 46 47 48 49 50 51 52 53 54 55 56 57 58 59 60 61 62 63 64 65 66 67 68 69 70 71 72 73 74 75 76 77 78 79 ;
param cv := 
0 25
1 10
2 20
3 23
4 12
5 13
6 15
7 14
8 19
9 20
10 16
11 25
12 15
13 13
14 17
15 15
16 15
17 14
18 17
19 10
20 19
21 16
22 17
23 22
24 13
25 11
26 10
27 15
28 13
29 13
30 25
31 12
32 20
33 25
34 10
35 22
36 18
37 22
;
param cs := 
0 22
1 40
2 37
3 20
4 22
5 40
6 31
7 24
8 37
9 40
10 29
11 40
12 33
13 23
14 24
15 29
16 29
17 38
18 23
19 29
20 24
21 21
22 39
23 34
24 38
25 22
26 20
27 24
28 26
29 39
30 29
31 35
32 27
33 27
34 20
35 26
36 39
37 30
38 27
39 39
40 21
41 40
42 21
43 25
44 32
45 26
46 33
47 36
48 40
49 32
50 27
51 35
52 37
53 33
54 24
55 30
56 30
57 28
58 20
59 39
60 32
61 35
62 29
63 31
64 31
65 28
66 28
67 31
68 31
69 21
70 25
71 21
72 20
73 30
74 29
75 22
76 26
77 30
78 39
79 28
;
param bv:	 0 1 2 3 4 5 6 7 8 9 10 11 12 13 14 15 16 17 18 19 20 21 22 23 24 25 26 27 28 29 30 31 32 33 34 35 36 37 := 
		0 0 0 0 0 0 0 0 0 0 0 0 0 0 0 0 0 0 0 0 0 19 22 0 0 0 0 0 0 17 17 0 0 0 0 0 0 0 0 
		1 0 0 0 0 0 0 24 13 0 0 0 0 0 14 0 0 0 24 0 0 0 0 0 0 0 20 0 0 0 16 0 24 0 0 0 0 0 0 
		2 0 0 0 25 0 0 0 0 0 0 0 0 0 0 0 0 0 0 0 0 17 0 15 0 0 0 0 0 0 0 0 0 0 0 0 0 0 0 
		3 0 0 0 0 0 0 0 0 0 0 0 0 0 0 0 0 0 13 0 0 0 0 24 0 10 0 0 0 0 0 0 0 0 0 0 0 0 0 
		4 0 0 0 0 0 0 0 0 0 0 0 0 0 0 0 0 0 0 12 0 0 0 0 0 0 25 0 0 0 0 0 0 0 0 0 0 0 0 
		5 0 0 0 0 0 0 0 0 0 0 0 0 0 0 0 0 0 0 0 0 0 21 0 0 0 14 0 0 0 0 20 0 0 0 0 0 0 0 
		6 0 0 0 0 0 0 0 0 0 0 0 0 0 0 0 0 0 0 0 0 0 0 0 0 0 0 0 0 0 16 0 0 0 0 0 0 0 0 
		7 0 0 0 0 0 0 0 0 0 0 0 0 0 0 0 0 0 0 0 0 0 0 0 21 0 22 24 0 0 0 0 0 0 0 0 0 0 0 
		8 0 0 0 0 0 0 0 0 0 0 0 0 0 0 0 0 0 0 16 0 0 0 0 0 0 0 0 0 0 0 0 0 0 0 0 0 0 22 
		9 0 0 0 0 0 0 0 0 0 0 0 0 0 0 0 0 0 0 0 0 0 0 0 0 0 0 0 0 0 0 0 14 0 0 0 0 0 0 
		10 0 0 0 0 0 0 0 0 0 0 0 0 0 0 0 0 0 10 0 0 0 0 0 0 0 0 0 20 0 0 0 16 0 0 0 0 0 0 
		11 0 0 0 0 0 0 0 0 0 0 0 0 18 0 23 0 0 0 0 0 0 0 0 0 0 0 0 0 0 0 0 14 0 0 0 0 0 0 
		12 0 0 0 0 0 0 0 0 0 0 0 0 0 0 0 0 0 0 0 0 14 0 0 0 0 0 0 0 24 0 0 0 0 0 0 0 25 0 
		13 0 0 0 0 0 0 0 0 0 0 0 0 0 0 0 0 0 0 0 0 0 0 17 0 0 0 0 0 0 0 0 0 0 0 0 0 0 0 
		14 0 0 0 0 0 0 0 0 0 0 0 0 0 0 0 0 0 0 0 0 0 0 24 0 19 0 0 0 0 14 0 24 0 0 0 0 0 0 
		15 0 0 0 0 0 0 0 0 0 0 0 0 0 0 0 0 0 0 0 0 0 0 0 0 0 0 0 0 0 0 0 0 0 16 0 0 0 0 
		16 0 0 0 0 0 0 0 0 0 0 0 0 0 0 0 0 0 0 0 0 0 0 0 0 0 0 0 0 0 0 0 0 0 0 0 0 17 0 
		17 0 0 0 0 0 0 0 0 0 0 0 0 0 0 0 0 0 0 0 0 0 0 0 10 0 0 0 0 0 0 0 0 0 0 0 0 0 0 
		18 0 0 0 0 0 0 0 0 0 0 0 0 0 0 0 0 0 0 0 0 0 0 0 0 24 0 0 17 0 0 0 0 0 0 0 0 0 0 
		19 0 0 0 0 0 0 0 0 0 0 0 0 0 0 0 0 0 0 0 0 0 0 0 0 0 0 0 24 0 0 0 0 0 0 0 21 0 0 
		20 0 0 0 0 0 0 0 0 0 0 0 0 0 0 0 0 0 0 0 0 0 0 0 10 0 0 0 0 0 0 0 0 0 0 0 25 0 0 
		21 0 0 0 0 0 0 0 0 0 0 0 0 0 0 0 0 0 0 0 0 0 0 0 0 0 0 0 0 0 0 0 0 19 0 0 0 0 15 
		22 0 0 0 0 0 0 0 0 0 0 0 0 0 0 0 0 0 0 0 0 0 0 0 0 0 0 0 21 22 0 0 0 0 0 0 0 0 0 
		23 0 0 0 0 0 0 0 0 0 0 0 0 0 0 0 0 0 0 0 0 0 0 0 0 0 0 0 0 0 17 0 0 0 0 0 0 23 0 
		24 0 0 0 0 0 0 0 0 0 0 0 0 0 0 0 0 0 0 0 0 0 0 0 0 0 0 0 0 0 16 0 0 0 0 0 0 0 0 
		25 0 0 0 0 0 0 0 0 0 0 0 0 0 0 0 0 0 0 0 0 0 0 0 0 0 0 0 0 0 0 0 0 0 0 0 0 0 0 
		26 0 0 0 0 0 0 0 0 0 0 0 0 0 0 0 0 0 0 0 0 0 0 0 0 0 0 0 0 0 0 0 0 0 0 0 0 17 0 
		27 0 0 0 0 0 0 0 0 0 0 0 0 0 0 0 0 0 0 0 0 0 0 0 0 0 0 0 0 0 0 0 0 0 0 0 0 0 0 
		28 0 0 0 0 0 0 0 0 0 0 0 0 0 0 0 0 0 0 0 0 0 0 0 0 0 0 0 0 0 0 0 0 23 0 0 0 14 0 
		29 0 0 0 0 0 0 0 0 0 0 0 0 0 0 0 0 0 0 0 0 0 0 0 0 0 0 0 0 0 0 0 0 19 0 0 0 0 0 
		30 0 0 0 0 0 0 0 0 0 0 0 0 0 0 0 0 0 0 0 0 0 0 0 0 0 0 0 0 0 0 0 0 0 10 0 0 0 0 
		31 0 0 0 0 0 0 0 0 0 0 0 0 0 0 0 0 0 0 0 0 0 0 0 0 0 0 0 0 0 0 0 0 0 0 0 0 0 0 
		32 0 0 0 0 0 0 0 0 0 0 0 0 0 0 0 0 0 0 0 0 0 0 0 0 0 0 0 0 0 0 0 0 0 0 17 0 0 0 
		33 0 0 0 0 0 0 0 0 0 0 0 0 0 0 0 0 0 0 0 0 0 0 0 0 0 0 0 0 0 0 0 0 0 0 14 0 0 0 
		34 0 0 0 0 0 0 0 0 0 0 0 0 0 0 0 0 0 0 0 0 0 0 0 0 0 0 0 0 0 0 0 0 0 0 0 0 0 0 
		35 0 0 0 0 0 0 0 0 0 0 0 0 0 0 0 0 0 0 0 0 0 0 0 0 0 0 0 0 0 0 0 0 0 0 0 0 0 0 
		36 0 0 0 0 0 0 0 0 0 0 0 0 0 0 0 0 0 0 0 0 0 0 0 0 0 0 0 0 0 0 0 0 0 0 0 0 0 0 
		37 0 0 0 0 0 0 0 0 0 0 0 0 0 0 0 0 0 0 0 0 0 0 0 0 0 0 0 0 0 0 0 0 0 0 0 0 0 0 
;
param bs:	 0 1 2 3 4 5 6 7 8 9 10 11 12 13 14 15 16 17 18 19 20 21 22 23 24 25 26 27 28 29 30 31 32 33 34 35 36 37 38 39 40 41 42 43 44 45 46 47 48 49 50 51 52 53 54 55 56 57 58 59 60 61 62 63 64 65 66 67 68 69 70 71 72 73 74 75 76 77 78 79 := 
		0 0 0 0 0 0 0 0 0 0 0 0 0 34 0 37 0 0 23 0 0 0 0 0 0 0 0 24 0 0 0 0 0 0 0 0 0 0 0 0 0 0 0 0 23 0 0 0 0 0 0 0 0 0 0 0 0 0 0 0 39 0 0 0 0 0 0 29 0 0 0 0 0 0 0 0 0 0 0 0 26 
		1 0 0 0 0 0 0 0 31 0 0 0 0 0 0 0 0 0 0 0 0 36 0 0 0 0 0 26 0 0 0 28 0 0 0 0 0 0 0 0 0 0 0 0 0 0 0 21 0 0 0 0 0 0 0 0 0 0 0 0 0 0 0 0 0 0 0 0 0 38 0 37 0 0 0 0 0 0 0 0 0 
		2 0 0 0 0 0 0 0 25 0 0 0 27 0 0 0 0 0 0 0 40 0 0 0 0 0 0 0 0 0 0 0 30 0 0 0 0 0 0 0 32 0 0 0 0 0 0 25 0 0 0 0 0 0 0 0 25 0 0 0 0 38 0 0 0 0 0 0 0 0 0 0 0 0 0 0 0 0 0 0 0 
		3 0 0 0 0 0 0 20 0 0 0 0 0 0 0 0 0 0 25 32 0 0 0 0 0 0 0 0 0 0 0 26 0 0 0 0 0 0 0 0 0 0 0 34 28 0 0 0 0 0 0 0 0 0 0 0 0 0 0 0 26 0 0 0 0 0 0 0 0 0 0 0 0 0 0 27 0 0 0 0 0 
		4 0 0 0 0 0 20 0 26 0 0 0 0 0 0 0 0 34 0 35 35 0 0 0 0 0 0 0 0 0 0 0 0 27 0 0 0 0 0 0 0 0 0 0 0 38 0 27 0 0 0 0 0 0 0 0 0 0 0 23 31 0 34 0 0 39 0 0 0 0 0 0 0 0 0 0 0 0 0 32 20 
		5 0 0 0 0 20 0 0 0 0 0 0 0 0 0 0 0 0 0 39 0 0 38 0 0 0 0 37 0 0 0 0 0 0 0 0 0 0 0 31 0 0 0 0 0 0 0 0 0 0 0 30 0 0 0 0 40 0 0 0 0 0 0 28 0 0 0 0 40 0 0 0 0 0 0 32 20 0 29 0 0 
		6 0 0 0 20 0 0 0 0 0 0 0 0 0 0 0 0 0 0 0 0 0 0 0 0 36 38 0 0 0 0 0 0 0 0 0 0 0 0 0 0 28 0 0 0 0 0 0 0 0 0 22 0 34 35 0 0 25 0 0 0 0 0 40 0 0 0 0 0 0 38 0 28 0 0 0 0 0 0 0 0 
		7 0 31 25 0 26 0 0 0 32 0 0 0 0 0 0 0 0 0 0 0 0 0 0 0 0 0 0 0 0 34 0 38 0 24 0 0 0 0 0 0 0 0 0 0 0 0 0 0 0 0 0 0 27 0 0 0 0 0 0 0 0 0 0 0 24 0 0 40 0 0 0 0 0 0 0 0 0 0 0 0 
		8 0 0 0 0 0 0 0 32 0 0 34 0 0 0 0 0 0 0 0 0 0 22 0 0 0 0 0 0 0 0 0 37 0 0 31 0 0 34 0 0 0 0 0 23 0 0 27 0 0 0 21 0 0 0 0 0 0 0 0 0 0 0 0 0 0 0 0 0 0 0 0 0 0 0 0 0 0 33 0 0 
		9 0 0 0 0 0 0 0 0 0 0 0 32 0 38 0 0 0 0 0 0 0 0 0 0 0 0 0 0 29 0 0 0 23 0 0 0 0 0 0 36 0 0 0 0 0 0 0 0 0 0 0 0 0 0 0 0 0 0 0 0 0 0 0 0 31 0 0 0 0 0 0 0 0 24 0 0 0 0 24 0 
		10 0 0 0 0 0 0 0 0 34 0 0 0 0 0 0 0 0 0 0 35 0 0 0 0 0 0 0 0 0 0 0 0 0 0 0 0 0 0 0 0 0 0 0 0 0 0 0 0 0 0 0 0 0 0 0 0 0 0 0 0 0 0 0 0 0 0 0 0 30 0 0 38 0 0 0 0 0 0 0 0 
		11 0 0 27 0 0 0 0 0 0 32 0 0 0 0 0 0 0 0 0 0 0 0 40 25 0 0 0 0 0 0 26 0 0 0 0 0 0 0 0 0 0 0 0 0 0 0 0 0 0 0 0 0 0 0 0 0 0 0 0 35 0 0 0 0 0 0 0 0 0 0 0 0 0 0 0 0 35 0 0 0 
		12 34 0 0 0 0 0 0 0 0 0 0 0 0 0 0 0 0 24 23 35 34 0 0 0 0 28 0 0 0 0 0 0 0 0 0 0 0 0 0 0 0 0 0 0 0 35 0 0 0 0 0 0 0 0 0 0 0 40 0 0 0 0 25 39 0 0 0 0 0 0 20 0 0 0 0 0 34 30 0 0 
		13 0 0 0 0 0 0 0 0 0 38 0 0 0 0 0 24 0 0 0 0 0 0 0 0 0 33 0 0 0 0 0 0 0 0 0 0 0 0 0 0 0 0 0 0 0 0 0 0 23 0 0 0 0 0 0 24 0 0 0 36 0 0 0 0 0 36 0 0 0 0 0 0 0 0 0 0 0 0 0 0 
		14 37 0 0 0 0 0 0 0 0 0 0 0 0 0 0 0 0 0 0 0 0 0 0 0 0 0 0 0 0 0 0 0 0 0 0 0 28 0 0 0 22 0 0 0 22 0 0 0 0 0 25 0 0 0 0 0 37 0 0 0 0 0 0 0 0 0 39 0 0 0 0 0 0 0 0 0 0 0 0 20 
		15 0 0 0 0 0 0 0 0 0 0 0 0 0 24 0 0 0 0 0 0 0 0 0 0 0 0 0 0 0 0 0 0 40 0 0 0 0 0 0 0 0 0 0 0 0 0 0 38 0 0 0 0 0 0 0 0 0 0 0 0 0 0 0 0 0 0 0 0 0 0 0 0 0 23 0 0 0 0 0 0 
		16 0 0 0 0 34 0 0 0 0 0 0 0 0 0 0 0 0 0 0 0 0 0 0 0 0 0 0 0 0 0 0 0 0 0 0 0 0 0 0 0 0 24 0 0 20 0 0 0 0 0 0 0 0 0 0 0 0 0 0 0 0 0 21 0 0 0 25 0 0 0 0 0 0 0 0 27 0 0 0 0 
		17 23 0 0 25 0 0 0 0 0 0 0 0 24 0 0 0 0 0 38 0 0 0 0 0 0 0 0 0 0 0 0 0 0 0 0 0 0 0 23 0 0 0 0 20 0 0 0 0 0 33 32 0 0 0 0 0 40 28 34 0 0 0 0 0 0 36 0 0 0 0 0 0 0 0 32 0 0 0 0 0 
		18 0 0 0 32 35 39 0 0 0 0 0 0 23 0 0 0 0 38 0 30 0 0 0 0 0 0 0 0 0 0 0 0 0 0 0 0 0 0 0 0 0 0 0 0 0 0 0 0 0 0 0 0 0 0 0 0 0 0 0 0 0 0 26 0 0 0 0 0 0 0 0 22 0 0 0 0 28 25 29 0 
		19 0 0 40 0 35 0 0 0 0 0 35 0 35 0 0 0 0 0 30 0 0 27 0 0 0 0 0 0 0 0 0 0 0 0 0 0 0 0 29 0 0 0 0 0 0 0 0 0 0 0 0 0 0 0 0 0 40 0 0 37 0 0 0 0 0 0 0 0 0 0 0 0 0 0 20 0 0 0 0 0 
		20 0 36 0 0 0 0 0 0 0 0 0 0 34 0 0 0 0 0 0 0 0 0 0 0 0 0 0 0 0 0 35 0 0 0 0 0 0 0 0 0 0 0 0 0 0 0 0 0 0 0 0 40 0 0 0 0 0 0 0 0 0 0 0 0 25 0 0 0 36 0 0 0 0 0 39 0 0 0 0 0 
		21 0 0 0 0 0 38 0 0 22 0 0 0 0 0 0 0 0 0 0 27 0 0 0 0 23 0 0 0 0 0 25 0 0 0 0 0 0 0 0 0 0 0 0 0 0 0 0 0 0 0 0 0 0 24 0 0 0 0 0 0 0 31 0 0 0 0 0 0 21 21 0 36 0 0 0 0 0 29 0 0 
		22 0 0 0 0 0 0 0 0 0 0 0 40 0 0 0 0 0 0 0 0 0 0 0 0 0 0 29 0 24 0 0 0 0 0 0 0 0 0 0 0 0 0 0 0 0 0 0 0 20 0 0 0 26 0 0 32 0 0 0 0 23 0 29 0 0 0 0 0 0 0 0 0 0 0 29 0 0 0 0 0 
		23 0 0 0 0 0 0 0 0 0 0 0 25 0 0 0 0 0 0 0 0 0 0 0 0 0 0 0 0 0 0 0 0 0 0 0 0 0 20 0 0 23 0 0 0 0 0 0 0 0 0 0 0 0 0 0 25 25 0 0 0 0 0 20 0 0 0 0 0 27 0 0 24 0 0 0 40 0 24 0 0 
		24 0 0 0 0 0 0 36 0 0 0 0 0 0 0 0 0 0 0 0 0 0 23 0 0 0 0 0 0 0 0 0 0 0 0 0 0 20 0 0 0 0 0 0 0 0 38 0 0 0 0 0 0 0 0 0 0 0 0 30 28 0 0 0 0 25 0 0 0 0 0 0 0 0 0 0 0 0 0 0 0 
		25 0 0 0 0 0 0 38 0 0 0 0 0 28 33 0 0 0 0 0 0 0 0 0 0 0 0 32 0 0 0 0 0 0 0 0 0 0 0 0 0 0 0 0 0 0 0 0 0 0 0 31 0 0 0 0 0 0 0 0 0 0 0 0 0 0 0 0 0 30 0 0 0 0 0 25 38 0 0 38 0 
		26 24 26 0 0 0 37 0 0 0 0 0 0 0 0 0 0 0 0 0 0 0 0 29 0 0 32 0 29 0 0 0 0 0 0 0 36 0 0 0 0 23 0 0 0 0 0 24 0 0 0 0 0 0 0 0 0 0 0 0 0 0 0 37 0 0 0 0 0 23 0 28 0 0 0 0 37 0 0 0 0 
		27 0 0 0 0 0 0 0 0 0 0 0 0 0 0 0 0 0 0 0 0 0 0 0 0 0 0 29 0 0 0 0 0 0 0 25 0 0 0 0 0 0 0 0 0 0 0 0 0 0 40 0 31 0 0 0 0 0 0 0 0 0 0 0 34 0 0 0 30 0 0 0 0 0 0 0 0 0 0 0 0 
		28 0 0 0 0 0 0 0 0 0 29 0 0 0 0 0 0 0 0 0 0 0 0 24 0 0 0 0 0 0 0 0 0 0 0 0 27 0 0 0 0 0 0 0 31 0 31 0 0 20 0 0 0 0 0 0 0 0 0 0 0 0 0 35 0 0 0 0 0 0 0 0 0 0 0 0 0 0 0 33 0 
		29 0 0 0 0 0 0 0 34 0 0 0 0 0 0 0 0 0 0 0 0 0 0 0 0 0 0 0 0 0 0 0 0 0 0 0 0 0 0 0 0 0 0 0 0 0 0 0 0 0 0 21 0 0 37 20 0 0 0 0 0 0 0 0 0 0 22 0 36 0 0 0 0 27 0 0 0 0 0 0 0 
		30 0 28 0 26 0 0 0 0 0 0 0 26 0 0 0 0 0 0 0 0 35 25 0 0 0 0 0 0 0 0 0 0 0 0 0 0 0 23 0 0 0 0 0 0 0 0 0 0 0 0 22 0 0 21 0 0 0 0 0 0 0 0 0 0 0 0 0 0 25 0 0 36 0 0 0 0 21 0 0 0 
		31 0 0 30 0 0 0 0 38 37 0 0 0 0 0 0 0 0 0 0 0 0 0 0 0 0 0 0 0 0 0 0 0 0 0 0 0 0 0 0 0 0 0 0 0 0 0 0 0 0 0 0 0 0 0 0 0 0 0 0 0 0 0 0 0 0 0 0 40 0 0 35 0 0 0 0 0 0 0 0 0 
		32 0 0 0 0 27 0 0 0 0 23 0 0 0 0 0 40 0 0 0 0 0 0 0 0 0 0 0 0 0 0 0 0 0 0 0 0 0 0 0 0 0 0 0 0 0 0 0 0 0 0 0 0 0 0 0 0 0 0 0 0 0 0 0 0 0 0 0 0 0 0 0 0 0 0 0 0 0 0 0 0 
		33 0 0 0 0 0 0 0 24 0 0 0 0 0 0 0 0 0 0 0 0 0 0 0 0 0 0 0 0 0 0 0 0 0 0 0 0 0 0 0 0 0 0 0 0 0 0 29 0 0 0 26 0 0 0 0 0 0 0 0 0 0 0 38 0 0 0 0 0 0 29 0 25 0 0 0 0 0 0 0 0 
		34 0 0 0 0 0 0 0 0 31 0 0 0 0 0 0 0 0 0 0 0 0 0 0 0 0 0 0 25 0 0 0 0 0 0 0 0 0 0 0 0 0 0 0 0 0 0 0 0 0 0 27 0 0 0 0 0 0 0 0 21 0 0 0 0 0 0 0 0 0 0 0 0 0 0 0 0 0 0 0 0 
		35 0 0 0 0 0 0 0 0 0 0 0 0 0 0 0 0 0 0 0 0 0 0 0 0 0 0 36 0 27 0 0 0 0 0 0 0 0 0 29 0 0 25 0 0 0 0 0 25 0 0 0 0 0 0 0 0 0 0 0 0 0 0 0 0 21 0 0 0 0 0 0 33 0 28 0 0 0 0 0 0 
		36 0 0 0 0 0 0 0 0 0 0 0 0 0 0 28 0 0 0 0 0 0 0 0 0 20 0 0 0 0 0 0 0 0 0 0 0 0 0 37 0 0 0 0 37 0 0 0 0 0 0 0 0 0 0 0 0 0 0 0 0 0 0 0 0 0 0 0 0 0 0 0 0 0 0 0 0 0 0 0 0 
		37 0 0 0 0 0 0 0 0 34 0 0 0 0 0 0 0 0 0 0 0 0 0 0 20 0 0 0 0 0 0 23 0 0 0 0 0 0 0 0 0 31 0 0 0 33 0 0 0 0 0 32 35 0 0 0 24 0 0 0 0 0 37 0 31 0 0 0 0 0 31 0 0 0 0 27 21 0 0 0 0 
		38 0 0 0 0 0 31 0 0 0 0 0 0 0 0 0 0 0 23 0 29 0 0 0 0 0 0 0 0 0 0 0 0 0 0 0 29 37 0 0 0 0 0 0 0 0 35 0 0 31 0 0 23 0 0 0 0 0 27 0 0 0 0 0 0 0 35 0 0 0 0 0 0 23 0 34 0 0 0 0 29 
		39 0 0 32 0 0 0 0 0 0 36 0 0 0 0 0 0 0 0 0 0 0 0 0 0 0 0 0 0 0 0 0 0 0 0 0 0 0 0 0 0 0 0 0 0 0 0 0 0 0 0 0 0 0 0 0 0 0 0 0 0 0 0 0 36 0 0 0 0 0 0 0 0 0 0 0 0 0 31 0 0 
		40 0 0 0 0 0 0 28 0 0 0 0 0 0 0 22 0 0 0 0 0 0 0 0 23 0 0 23 0 0 0 0 0 0 0 0 0 0 31 0 0 0 0 0 0 40 40 0 0 0 0 29 0 0 0 0 0 35 0 25 0 0 0 0 0 0 0 0 0 0 0 0 0 0 0 36 40 0 0 0 0 
		41 0 0 0 0 0 0 0 0 0 0 0 0 0 0 0 0 24 0 0 0 0 0 0 0 0 0 0 0 0 0 0 0 0 0 0 25 0 0 0 0 0 0 0 0 0 0 0 34 0 0 0 0 0 0 0 33 0 0 0 0 0 0 0 0 0 0 0 0 0 0 0 0 0 38 0 0 0 0 24 0 
		42 0 0 0 34 0 0 0 0 0 0 0 0 0 0 0 0 0 0 0 0 0 0 0 0 0 0 0 0 0 0 0 0 0 0 0 0 0 0 0 0 0 0 0 0 0 0 0 0 0 25 0 0 0 0 0 0 0 0 0 29 0 0 0 0 0 0 22 35 0 0 0 0 0 0 24 0 0 0 0 0 
		43 23 0 0 28 0 0 0 0 23 0 0 0 0 0 0 0 0 20 0 0 0 0 0 0 0 0 0 0 31 0 0 0 0 0 0 0 37 0 0 0 0 0 0 0 0 0 0 0 24 0 0 0 0 28 0 0 0 0 0 0 0 0 0 0 0 0 0 0 0 0 0 0 0 0 0 0 27 0 0 0 
		44 0 0 0 0 38 0 0 0 0 0 0 0 0 0 22 0 20 0 0 0 0 0 0 0 0 0 0 0 0 0 0 0 0 0 0 0 0 33 0 0 40 0 0 0 0 0 0 0 0 0 0 0 0 30 0 0 29 24 0 0 0 0 0 0 0 0 0 0 28 0 0 0 0 0 0 0 0 0 0 26 
		45 0 0 0 0 0 0 0 0 0 0 0 0 35 0 0 0 0 0 0 0 0 0 0 0 38 0 0 0 31 0 0 0 0 0 0 0 0 0 35 0 40 0 0 0 0 0 0 0 0 0 0 0 0 37 0 0 0 0 33 0 0 0 0 0 0 0 0 0 0 0 0 0 0 0 0 0 0 0 0 0 
		46 0 21 25 0 27 0 0 0 27 0 0 0 0 0 0 0 0 0 0 0 0 0 0 0 0 0 24 0 0 0 0 0 0 29 0 0 0 0 0 0 0 0 0 0 0 0 0 0 0 0 31 0 0 0 0 0 0 0 0 0 31 0 0 0 0 0 0 0 0 0 0 0 0 0 0 0 0 0 0 0 
		47 0 0 0 0 0 0 0 0 0 0 0 0 0 0 0 38 0 0 0 0 0 0 0 0 0 0 0 0 0 0 0 0 0 0 0 25 0 0 0 0 0 34 0 0 0 0 0 0 0 24 0 0 0 0 36 0 0 0 0 0 0 0 0 0 0 0 0 0 0 0 0 0 0 0 0 0 0 0 0 0 
		48 0 0 0 0 0 0 0 0 0 0 0 0 0 23 0 0 0 0 0 0 0 0 20 0 0 0 0 0 20 0 0 0 0 0 0 0 0 0 31 0 0 0 0 24 0 0 0 0 0 0 40 0 0 0 0 38 0 0 0 28 0 0 0 0 0 0 0 0 0 0 0 0 0 0 0 22 0 0 0 0 
		49 0 0 0 0 0 0 0 0 0 0 0 0 0 0 0 0 0 33 0 0 0 0 0 0 0 0 0 40 0 0 0 0 0 0 0 0 0 0 0 0 0 0 25 0 0 0 0 24 0 0 0 35 0 0 0 0 0 0 0 0 29 0 0 0 0 0 28 0 35 0 0 0 0 0 0 0 0 27 0 0 
		50 0 0 0 0 0 30 22 0 21 0 0 0 0 0 25 0 0 32 0 0 0 0 0 0 0 31 0 0 0 21 22 0 0 26 27 0 0 32 0 0 29 0 0 0 0 0 31 0 40 0 0 0 0 0 0 0 0 0 0 0 0 0 0 0 0 0 0 0 0 0 0 0 0 0 20 0 0 0 0 0 
		51 0 0 0 0 0 0 0 0 0 0 0 0 0 0 0 0 0 0 0 0 40 0 0 0 0 0 0 31 0 0 0 0 0 0 0 0 0 35 23 0 0 0 0 0 0 0 0 0 0 35 0 0 0 0 0 0 0 0 0 0 0 0 0 0 0 0 0 0 0 0 0 0 0 0 29 0 0 0 0 0 
		52 0 0 0 0 0 0 34 27 0 0 0 0 0 0 0 0 0 0 0 0 0 0 26 0 0 0 0 0 0 0 0 0 0 0 0 0 0 0 0 0 0 0 0 0 0 0 0 0 0 0 0 0 0 0 26 0 0 0 0 0 0 0 0 0 0 0 0 0 0 0 0 0 0 0 0 0 0 0 0 0 
		53 0 0 0 0 0 0 35 0 0 0 0 0 0 0 0 0 0 0 0 0 0 24 0 0 0 0 0 0 0 37 21 0 0 0 0 0 0 0 0 0 0 0 0 28 30 37 0 0 0 0 0 0 0 0 0 0 31 0 0 0 0 0 0 0 0 0 24 0 0 0 0 0 0 0 0 0 0 0 22 0 
		54 0 0 0 0 0 0 0 0 0 0 0 0 0 0 0 0 0 0 0 0 0 0 0 0 0 0 0 0 0 20 0 0 0 0 0 0 0 0 0 0 0 0 0 0 0 0 0 36 0 0 0 0 26 0 0 0 22 0 0 0 0 0 0 0 0 0 0 0 0 0 0 0 0 0 0 0 0 0 0 0 
		55 0 0 25 0 0 40 0 0 0 0 0 0 0 24 0 0 0 0 0 0 0 0 32 25 0 0 0 0 0 0 0 0 0 0 0 0 0 24 0 0 0 33 0 0 0 0 0 0 38 0 0 0 0 0 0 0 0 0 0 0 0 0 0 0 0 0 33 0 0 0 0 0 0 0 0 0 0 0 0 0 
		56 0 0 0 0 0 0 25 0 0 0 0 0 0 0 37 0 0 40 0 40 0 0 0 25 0 0 0 0 0 0 0 0 0 0 0 0 0 0 0 0 35 0 0 0 29 0 0 0 0 0 0 0 0 31 22 0 0 34 0 20 0 0 0 0 0 0 0 0 0 0 0 0 0 0 0 0 28 34 0 30 
		57 0 0 0 0 0 0 0 0 0 0 0 0 40 0 0 0 0 28 0 0 0 0 0 0 0 0 0 0 0 0 0 0 0 0 0 0 0 0 27 0 0 0 0 0 24 0 0 0 0 0 0 0 0 0 0 0 34 0 0 0 0 0 0 0 0 0 0 0 0 0 0 27 34 0 25 0 0 0 0 0 
		58 0 0 0 0 23 0 0 0 0 0 0 0 0 0 0 0 0 34 0 0 0 0 0 0 30 0 0 0 0 0 0 0 0 0 0 0 0 0 0 0 25 0 0 0 0 33 0 0 0 0 0 0 0 0 0 0 0 0 0 0 0 0 0 0 0 0 0 0 0 0 0 0 0 0 31 0 0 0 0 0 
		59 39 0 0 26 31 0 0 0 0 0 0 35 0 36 0 0 0 0 0 37 0 0 0 0 28 0 0 0 0 0 0 0 0 0 21 0 0 0 0 0 0 0 29 0 0 0 0 0 28 0 0 0 0 0 0 0 20 0 0 0 0 0 0 36 0 0 0 0 0 0 0 0 0 0 0 0 0 33 26 0 
		60 0 0 38 0 0 0 0 0 0 0 0 0 0 0 0 0 0 0 0 0 0 0 23 0 0 0 0 0 0 0 0 0 0 0 0 0 0 0 0 0 0 0 0 0 0 0 31 0 0 29 0 0 0 0 0 0 0 0 0 0 0 0 33 0 0 0 21 0 0 0 0 0 0 0 0 0 0 0 27 0 
		61 0 0 0 0 34 0 0 0 0 0 0 0 0 0 0 0 0 0 0 0 0 31 0 0 0 0 0 0 0 0 0 0 0 0 0 0 0 37 0 0 0 0 0 0 0 0 0 0 0 0 0 0 0 0 0 0 0 0 0 0 0 0 0 0 0 0 0 0 0 0 0 24 0 0 0 0 0 28 29 0 
		62 0 0 0 0 0 28 40 0 0 0 0 0 25 0 0 0 21 0 26 0 0 0 29 20 0 0 37 0 35 0 0 0 0 38 0 0 0 0 0 0 0 0 0 0 0 0 0 0 0 0 0 0 0 0 0 0 0 0 0 0 33 0 0 0 0 0 0 0 0 0 0 0 0 0 32 0 33 23 29 0 
		63 0 0 0 0 0 0 0 0 0 0 0 0 39 0 0 0 0 0 0 0 0 0 0 0 0 0 0 34 0 0 0 0 0 0 0 0 0 31 0 36 0 0 0 0 0 0 0 0 0 0 0 0 0 0 0 0 0 0 0 36 0 0 0 0 0 0 0 0 0 0 0 0 0 0 0 0 0 0 0 0 
		64 0 0 0 0 39 0 0 24 0 31 0 0 0 0 0 0 0 0 0 0 25 0 0 0 25 0 0 0 0 0 0 0 0 0 0 21 0 0 0 0 0 0 0 0 0 0 0 0 0 0 0 0 0 0 0 0 0 0 0 0 0 0 0 0 0 37 0 0 0 0 0 0 32 0 0 0 0 0 0 0 
		65 0 0 0 0 0 0 0 0 0 0 0 0 0 36 0 0 0 36 0 0 0 0 0 0 0 0 0 0 0 22 0 0 0 0 0 0 0 0 35 0 0 0 0 0 0 0 0 0 0 0 0 0 0 0 0 0 0 0 0 0 0 0 0 0 37 0 0 40 0 0 26 0 0 0 0 34 0 0 0 0 
		66 29 0 0 0 0 0 0 0 0 0 0 0 0 0 39 0 25 0 0 0 0 0 0 0 0 0 0 0 0 0 0 0 0 0 0 0 0 0 0 0 0 0 22 0 0 0 0 0 0 28 0 0 0 24 0 33 0 0 0 0 21 0 0 0 0 0 0 0 0 0 0 0 0 0 0 0 0 0 0 0 
		67 0 0 0 0 0 40 0 40 0 0 0 0 0 0 0 0 0 0 0 0 0 0 0 0 0 0 0 30 0 36 0 40 0 0 0 0 0 0 0 0 0 0 35 0 0 0 0 0 0 0 0 0 0 0 0 0 0 0 0 0 0 0 0 0 0 40 0 0 39 0 0 0 0 0 0 0 0 0 0 24 
		68 0 38 0 0 0 0 0 0 0 0 30 0 0 0 0 0 0 0 0 0 36 21 0 27 0 30 23 0 0 0 25 0 0 0 0 0 0 0 0 0 0 0 0 0 28 0 0 0 0 35 0 0 0 0 0 0 0 0 0 0 0 0 0 0 0 0 0 39 0 0 0 0 20 0 0 0 0 0 0 0 
		69 0 0 0 0 0 0 38 0 0 0 0 0 0 0 0 0 0 0 0 0 0 21 0 0 0 0 0 0 0 0 0 0 0 29 0 0 0 31 0 0 0 0 0 0 0 0 0 0 0 0 0 0 0 0 0 0 0 0 0 0 0 0 0 0 0 0 0 0 0 0 0 0 0 0 0 0 30 0 0 0 
		70 0 37 0 0 0 0 0 0 0 0 0 0 20 0 0 0 0 0 0 0 0 0 0 0 0 0 28 0 0 0 0 35 0 0 0 0 0 0 0 0 0 0 0 0 0 0 0 0 0 0 0 0 0 0 0 0 0 0 0 0 0 0 0 0 0 26 0 0 0 0 0 0 35 0 0 0 0 0 0 0 
		71 0 0 0 0 0 0 28 0 0 0 38 0 0 0 0 0 0 0 22 0 0 36 0 24 0 0 0 0 0 0 36 0 0 25 0 33 0 0 0 0 0 0 0 0 0 0 0 0 0 0 0 0 0 0 0 0 0 27 0 0 0 24 0 0 0 0 0 0 0 0 0 0 0 0 22 0 0 0 0 0 
		72 0 0 0 0 0 0 0 0 0 0 0 0 0 0 0 0 0 0 0 0 0 0 0 0 0 0 0 0 0 27 0 0 0 0 0 0 0 0 23 0 0 0 0 0 0 0 0 0 0 0 0 0 0 0 0 0 0 34 0 0 0 0 0 0 32 0 0 0 20 0 35 0 0 0 0 0 0 0 0 0 
		73 0 0 0 0 0 0 0 0 0 24 0 0 0 0 0 23 0 0 0 0 0 0 0 0 0 0 0 0 0 0 0 0 0 0 0 28 0 0 0 0 0 38 0 0 0 0 0 0 0 0 0 0 0 0 0 0 0 0 0 0 0 0 0 0 0 0 0 0 0 0 0 0 0 0 0 0 0 0 0 0 
		74 0 0 0 27 0 32 0 0 0 0 0 0 0 0 0 0 0 32 0 20 39 0 29 0 0 25 0 0 0 0 0 0 0 0 0 0 0 27 34 0 36 0 24 0 0 0 0 0 0 0 20 29 0 0 0 0 0 25 31 0 0 0 32 0 0 0 0 0 0 0 0 22 0 0 0 0 0 0 0 0 
		75 0 0 0 0 0 20 0 0 0 0 0 0 0 0 0 0 27 0 0 0 0 0 0 40 0 38 37 0 0 0 0 0 0 0 0 0 0 21 0 0 40 0 0 0 0 0 0 0 22 0 0 0 0 0 0 0 0 0 0 0 0 0 0 0 0 34 0 0 0 0 0 0 0 0 0 0 0 0 0 0 
		76 0 0 0 0 0 0 0 0 0 0 0 35 34 0 0 0 0 0 28 0 0 0 0 0 0 0 0 0 0 0 21 0 0 0 0 0 0 0 0 0 0 0 0 27 0 0 0 0 0 0 0 0 0 0 0 0 28 0 0 0 0 0 33 0 0 0 0 0 0 30 0 0 0 0 0 0 0 31 0 0 
		77 0 0 0 0 0 29 0 0 33 0 0 0 30 0 0 0 0 0 25 0 0 29 0 24 0 0 0 0 0 0 0 0 0 0 0 0 0 0 0 31 0 0 0 0 0 0 0 0 0 27 0 0 0 0 0 0 34 0 0 33 0 28 23 0 0 0 0 0 0 0 0 0 0 0 0 0 31 0 0 0 
		78 0 0 0 0 32 0 0 0 0 24 0 0 0 0 0 0 0 0 29 0 0 0 0 0 0 38 0 0 33 0 0 0 0 0 0 0 0 0 0 0 0 24 0 0 0 0 0 0 0 0 0 0 0 22 0 0 0 0 0 26 27 29 29 0 0 0 0 0 0 0 0 0 0 0 0 0 0 0 0 0 
		79 26 0 0 0 20 0 0 0 0 0 0 0 0 0 20 0 0 0 0 0 0 0 0 0 0 0 0 0 0 0 0 0 0 0 0 0 0 0 29 0 0 0 0 0 26 0 0 0 0 0 0 0 0 0 0 0 30 0 0 0 0 0 0 0 0 0 0 24 0 0 0 0 0 0 0 0 0 0 0 0 
;
